60
2 0 12
2 1 1
3 0 5
3 1 11
4 0 7
5 0 11
5 4 12
6 2 11
6 5 11
7 0 6
7 1 2
7 3 9
7 4 3
7 5 12
8 0 6
8 4 11
8 5 11
9 0 5
9 2 9
9 6 10
10 4 1
10 6 8
10 9 1
11 0 6
11 1 4
11 2 8
11 3 10
11 4 3
11 5 3
11 6 2
11 9 1
12 0 12
12 5 8
12 10 4
13 2 2
13 8 12
13 9 9
13 10 8
13 11 7
14 1 12
14 2 8
14 3 8
14 4 3
14 6 2
14 7 4
14 9 8
14 10 2
14 11 8
15 0 12
15 2 8
15 3 9
15 5 10
15 6 6
15 11 12
15 13 3
15 14 7
16 1 5
16 3 5
16 4 11
16 5 8
16 7 6
16 9 1
16 10 6
16 11 11
16 14 9
16 15 11
17 0 8
17 2 7
17 5 2
17 8 11
17 9 5
17 10 12
17 12 11
18 0 12
18 2 8
18 4 10
18 5 8
18 8 9
18 9 5
18 10 10
18 11 1
18 12 6
18 13 6
18 14 1
18 17 12
19 0 11
19 1 8
19 2 12
19 4 1
19 7 12
19 8 7
19 9 5
19 11 12
19 13 12
19 15 6
19 16 9
20 0 2
20 2 2
20 4 11
20 7 10
20 10 10
20 12 9
20 13 1
20 14 8
20 15 11
20 17 9
20 19 10
21 0 6
21 1 4
21 2 6
21 5 4
21 6 12
21 7 11
21 8 2
21 10 8
21 12 11
21 14 6
21 15 7
21 17 1
21 18 2
21 19 4
22 1 12
22 2 6
22 3 3
22 4 2
22 5 11
22 8 12
22 9 9
22 10 5
22 11 12
22 17 7
22 18 4
22 20 4
23 0 9
23 2 8
23 4 6
23 6 7
23 7 10
23 8 9
23 15 4
23 16 10
23 17 12
23 21 4
24 1 7
24 2 11
24 3 11
24 4 11
24 5 4
24 6 8
24 9 9
24 10 11
24 13 10
24 14 2
24 17 10
24 18 1
24 19 11
24 20 11
24 23 7
25 1 4
25 2 6
25 4 12
25 5 3
25 8 11
25 9 12
25 12 12
25 17 3
25 20 7
25 21 12
25 22 6
25 23 6
26 0 1
26 3 2
26 6 7
26 7 1
26 8 2
26 9 8
26 10 10
26 11 9
26 12 6
26 14 4
26 15 8
26 16 9
26 18 6
26 22 5
26 23 12
26 25 9
27 0 3
27 2 4
27 3 12
27 4 2
27 6 1
27 9 7
27 11 11
27 12 10
27 13 4
27 15 3
27 16 1
27 17 7
27 19 2
27 20 12
27 24 1
28 3 7
28 5 1
28 8 12
28 10 6
28 12 4
28 14 12
28 17 5
28 23 5
28 24 3
29 3 9
29 4 12
29 7 1
29 9 1
29 13 9
29 14 11
29 15 4
29 18 4
29 19 1
29 26 10
30 0 8
30 1 2
30 2 6
30 3 2
30 4 6
30 11 1
30 13 8
30 20 2
30 23 4
30 24 8
30 29 5
31 1 8
31 2 1
31 3 5
31 7 5
31 9 3
31 10 3
31 11 8
31 12 6
31 14 7
31 15 10
31 16 5
31 19 9
31 22 7
31 23 11
31 24 7
31 25 11
31 26 11
31 27 9
31 28 3
31 29 9
31 30 1
32 0 11
32 2 11
32 4 1
32 10 10
32 11 1
32 13 8
32 15 9
32 17 9
32 18 11
32 23 9
32 24 3
32 25 4
32 26 8
32 27 1
32 30 8
33 1 1
33 3 6
33 4 12
33 5 8
33 6 3
33 9 7
33 10 5
33 16 3
33 17 8
33 20 10
33 23 3
33 25 12
33 26 10
33 28 2
33 31 2
33 32 11
34 1 12
34 3 2
34 4 2
34 5 3
34 7 10
34 9 3
34 10 5
34 12 11
34 13 2
34 15 7
34 17 9
34 18 6
34 20 1
34 25 12
34 27 6
34 28 10
34 31 4
34 32 12
35 4 12
35 5 9
35 6 7
35 7 11
35 8 6
35 9 11
35 11 7
35 12 9
35 14 12
35 15 9
35 16 3
35 19 10
35 21 11
35 24 12
35 25 8
35 26 12
35 27 1
35 29 3
35 30 3
35 34 4
36 1 1
36 2 4
36 3 7
36 6 10
36 7 11
36 8 7
36 10 7
36 13 6
36 19 3
36 21 9
36 23 4
36 25 5
36 26 6
36 27 10
36 30 7
36 31 1
36 32 4
37 1 7
37 2 8
37 3 5
37 5 9
37 7 9
37 15 3
37 16 1
37 19 5
37 21 5
37 22 8
37 23 10
37 25 2
37 35 1
38 1 1
38 4 10
38 5 2
38 9 6
38 10 7
38 11 3
38 12 8
38 14 11
38 15 11
38 18 11
38 19 10
38 20 8
38 21 8
38 26 7
38 27 5
38 32 9
38 34 5
38 35 8
38 36 6
39 1 10
39 2 10
39 5 8
39 7 12
39 9 4
39 10 6
39 11 6
39 12 2
39 13 12
39 16 1
39 18 1
39 20 1
39 22 8
39 24 6
39 26 2
39 27 8
39 32 9
39 37 10
39 38 9
40 0 7
40 3 3
40 4 12
40 5 11
40 9 4
40 11 6
40 12 10
40 15 3
40 20 11
40 23 3
40 30 3
40 34 11
40 35 10
40 37 6
40 38 11
40 39 6
41 0 6
41 1 12
41 2 3
41 3 1
41 6 9
41 7 8
41 11 6
41 12 9
41 13 5
41 14 1
41 16 4
41 17 2
41 20 9
41 21 5
41 23 8
41 25 1
41 28 11
41 30 9
41 31 7
41 32 1
41 38 10
42 1 8
42 3 3
42 6 7
42 7 10
42 9 3
42 15 6
42 17 3
42 18 7
42 19 12
42 26 4
42 27 8
42 29 6
42 31 9
42 32 11
42 34 6
42 35 6
42 36 9
42 39 7
42 41 3
43 1 2
43 2 8
43 3 11
43 5 1
43 10 4
43 13 1
43 14 8
43 16 5
43 19 12
43 20 1
43 23 2
43 25 6
43 27 3
43 28 4
43 29 5
43 30 2
43 32 2
43 33 7
43 35 2
43 37 8
43 38 2
43 40 10
44 1 4
44 4 4
44 5 9
44 6 1
44 7 11
44 9 9
44 10 8
44 13 6
44 14 8
44 19 7
44 23 11
44 25 1
44 30 7
44 34 7
44 38 6
44 39 5
44 41 4
44 43 6
45 1 5
45 3 7
45 5 8
45 6 3
45 8 8
45 9 1
45 10 2
45 11 7
45 12 9
45 14 1
45 16 4
45 18 8
45 19 2
45 20 12
45 22 10
45 23 9
45 25 10
45 29 7
45 30 8
45 31 11
45 32 6
45 37 1
45 38 8
45 39 11
45 44 1
46 1 2
46 2 7
46 4 3
46 5 4
46 7 11
46 9 2
46 12 6
46 13 12
46 14 5
46 15 12
46 16 5
46 17 11
46 19 8
46 20 2
46 21 4
46 22 7
46 23 4
46 31 3
46 32 2
46 34 10
46 36 7
46 39 2
46 41 12
46 43 9
46 44 7
47 1 6
47 2 5
47 5 11
47 8 10
47 10 8
47 11 5
47 12 5
47 13 11
47 15 11
47 17 6
47 18 3
47 20 8
47 23 7
47 24 4
47 29 8
47 30 1
47 31 4
47 32 8
47 36 5
47 37 6
47 40 1
47 41 1
47 42 10
47 45 5
47 46 10
48 1 10
48 3 11
48 7 4
48 8 4
48 9 10
48 10 8
48 13 2
48 16 1
48 17 2
48 18 4
48 22 10
48 24 3
48 30 2
48 32 6
48 37 2
48 42 12
48 44 8
49 0 5
49 1 5
49 2 4
49 7 11
49 11 9
49 14 9
49 15 9
49 16 5
49 17 5
49 18 10
49 20 8
49 24 8
49 28 1
49 30 5
49 31 7
49 34 5
49 35 12
49 36 3
49 42 7
49 44 6
49 45 9
49 47 6
50 0 6
50 1 12
50 3 7
50 4 3
50 6 7
50 7 3
50 11 3
50 14 10
50 17 10
50 18 8
50 21 9
50 23 9
50 26 7
50 27 1
50 29 12
50 30 12
50 32 6
50 33 5
50 36 4
50 38 5
50 39 6
50 41 2
50 43 4
50 44 3
50 45 10
50 46 6
51 0 6
51 3 3
51 5 7
51 7 3
51 8 11
51 10 8
51 11 2
51 12 6
51 13 7
51 15 9
51 16 11
51 17 1
51 21 8
51 22 12
51 26 12
51 27 2
51 29 9
51 31 6
51 32 9
51 33 9
51 34 9
51 39 7
51 42 6
51 49 8
51 50 10
52 0 11
52 3 4
52 4 3
52 6 11
52 7 9
52 8 10
52 12 8
52 17 11
52 19 7
52 21 11
52 23 4
52 27 5
52 29 4
52 30 4
52 32 12
52 33 11
52 34 11
52 35 5
52 37 2
52 38 12
52 42 12
52 43 3
52 44 1
52 45 10
52 46 8
52 47 5
52 49 12
52 51 9
53 0 1
53 2 10
53 4 5
53 8 9
53 9 10
53 10 6
53 11 4
53 12 3
53 13 9
53 14 12
53 15 9
53 16 12
53 19 11
53 22 5
53 24 1
53 29 2
53 31 1
53 38 1
53 41 1
53 42 10
53 43 6
53 45 1
53 46 6
53 48 9
53 50 6
53 51 10
54 0 1
54 1 8
54 5 2
54 9 1
54 11 2
54 13 5
54 15 5
54 18 3
54 19 11
54 20 9
54 23 3
54 24 9
54 31 7
54 32 2
54 33 1
54 35 7
54 40 7
54 43 5
54 44 5
54 45 10
54 46 1
54 49 9
55 0 9
55 1 9
55 2 6
55 3 8
55 5 10
55 8 9
55 13 12
55 15 9
55 16 10
55 18 4
55 19 9
55 20 12
55 23 1
55 26 10
55 27 11
55 29 4
55 30 3
55 35 10
55 36 1
55 38 3
55 40 1
55 41 11
55 42 5
55 43 6
55 46 4
55 49 11
55 50 10
55 52 9
55 53 7
56 1 11
56 3 10
56 4 7
56 5 11
56 6 9
56 7 2
56 8 10
56 9 12
56 11 12
56 13 12
56 14 11
56 15 3
56 17 11
56 18 3
56 19 8
56 21 11
56 22 11
56 27 4
56 29 1
56 34 8
56 35 7
56 36 12
56 37 7
56 39 7
56 42 1
56 47 8
56 49 5
56 50 3
56 53 8
56 54 12
57 0 2
57 3 10
57 5 5
57 8 9
57 11 2
57 12 10
57 13 5
57 14 12
57 17 8
57 18 10
57 21 3
57 25 11
57 28 1
57 31 11
57 33 12
57 36 4
57 37 11
57 39 10
57 41 6
57 42 12
57 45 2
57 46 5
57 47 12
57 49 7
57 51 6
57 54 5
57 55 1
58 3 6
58 4 1
58 5 12
58 6 10
58 7 6
58 8 10
58 11 11
58 14 9
58 16 12
58 17 8
58 19 7
58 22 8
58 23 9
58 24 4
58 26 9
58 31 6
58 35 3
58 42 11
58 45 8
58 47 3
58 50 11
58 52 10
58 53 12
58 54 7
58 55 9
58 57 3
59 0 10
59 2 8
59 3 2
59 4 5
59 6 8
59 7 6
59 12 10
59 13 4
59 15 4
59 20 1
59 26 10
59 27 11
59 29 11
59 31 1
59 32 6
59 33 11
59 36 3
59 37 10
59 39 9
59 41 4
59 45 11
59 48 2
59 52 11
59 54 4
59 56 9
59 57 1
59 58 1
